/*********************************************
 * OPL 12.7.0.0 Data
 * Author: Amanda
 * Creation Date: 9 kwi 2017 at 12:27:25
 *********************************************/
n = 5;
s = 1;
t = 5;
A = {<1,2>, <1,3>, <1,4>, <2,3>, <2,4>, <3,4>, <3,5>, <4,5>};
Cost = [3 4 1 4 2 1 2 4];
 